NAME: n200q25E.tsp, 200 nodes, semilla 444
COMMENT: Problema aleatorio de norma euclidea
DIMENSION: 200
CAPACITY: 25
EDGE_WEIGHT_TYPE: EUC_2D
NODE_COORD_SECTION
1   0.0000   0.0000
2 152.0000 -11.0000
3 -319.0000 -425.0000
4  62.0000 -493.0000
5  28.0000 -462.0000
6 115.0000  65.0000
7 390.0000 220.0000
8 319.0000 -96.0000
9  54.0000 190.0000
10 -415.0000 -149.0000
11 142.0000 -95.0000
12 -352.0000 -79.0000
13 -72.0000  67.0000
14 491.0000 -385.0000
15 -319.0000 425.0000
16  12.0000 421.0000
17 157.0000 -354.0000
18 338.0000 336.0000
19 -477.0000 243.0000
20 495.0000 361.0000
21 -326.0000 424.0000
22 -377.0000 259.0000
23  12.0000 -215.0000
24 434.0000 386.0000
25 450.0000 -292.0000
26 -340.0000 467.0000
27 161.0000 210.0000
28 243.0000  -2.0000
29 115.0000 365.0000
30 -280.0000 -301.0000
31 -176.0000 -191.0000
32 -126.0000  36.0000
33 367.0000 -115.0000
34 -177.0000 -489.0000
35 200.0000  52.0000
36 461.0000 -200.0000
37 -444.0000 471.0000
38 296.0000 124.0000
39 -273.0000 485.0000
40 -100.0000 -200.0000
41 -396.0000 294.0000
42 -474.0000 -69.0000
43 -455.0000 -492.0000
44 134.0000   1.0000
45 -75.0000 163.0000
46 -128.0000 -382.0000
47  56.0000 -77.0000
48 -453.0000 -78.0000
49 -462.0000 284.0000
50 448.0000  90.0000
51 -433.0000 137.0000
52 367.0000 -480.0000
53 104.0000 343.0000
54 -305.0000 -54.0000
55 277.0000 136.0000
56 -291.0000 -432.0000
57   2.0000 -229.0000
58 352.0000 -261.0000
59 -112.0000 -49.0000
60 -286.0000 -496.0000
61  22.0000 408.0000
62 -319.0000 498.0000
63 -224.0000 -248.0000
64 318.0000  71.0000
65 238.0000 -206.0000
66 173.0000 257.0000
67 256.0000 -261.0000
68 -337.0000 -255.0000
69 -248.0000 -38.0000
70 -35.0000 -233.0000
71 488.0000 193.0000
72  53.0000 180.0000
73  63.0000 452.0000
74 -342.0000 -397.0000
75 -370.0000 402.0000
76 -353.0000 453.0000
77 303.0000 298.0000
78 236.0000 -243.0000
79 464.0000 224.0000
80 -484.0000   3.0000
81 196.0000 391.0000
82 -386.0000 253.0000
83 -21.0000 273.0000
84 -237.0000 -397.0000
85 -212.0000 -195.0000
86 367.0000 -463.0000
87 -40.0000 289.0000
88  92.0000 -278.0000
89 360.0000 -24.0000
90 -149.0000 219.0000
91 217.0000 -171.0000
92 -132.0000  87.0000
93 -249.0000 -479.0000
94 -255.0000 417.0000
95 -392.0000 138.0000
96 -27.0000 -162.0000
97 -397.0000  76.0000
98 202.0000 228.0000
99  -7.0000 -436.0000
100 284.0000 -482.0000
101 498.0000  75.0000
102 -408.0000 426.0000
103 139.0000 159.0000
104 -206.0000 348.0000
105 399.0000 240.0000
106 -307.0000 -268.0000
107 483.0000 -390.0000
108 -485.0000  13.0000
109 -114.0000  94.0000
110 303.0000 -208.0000
111 313.0000 -66.0000
112 489.0000 -471.0000
113  44.0000 409.0000
114 -205.0000 -449.0000
115 329.0000  75.0000
116 -350.0000 -22.0000
117  28.0000 -471.0000
118 -393.0000 352.0000
119 251.0000 -52.0000
120 326.0000 -423.0000
121 147.0000 396.0000
122 -170.0000 -36.0000
123 -37.0000  62.0000
124 226.0000 -327.0000
125 317.0000 -479.0000
126 -408.0000 -128.0000
127 458.0000  -3.0000
128 -400.0000 394.0000
129 333.0000 -99.0000
130 295.0000  39.0000
131 -133.0000 -89.0000
132 485.0000 -161.0000
133 -478.0000 -46.0000
134 -197.0000 -83.0000
135  63.0000 207.0000
136 -407.0000 -239.0000
137 -268.0000 387.0000
138 495.0000 493.0000
139 -190.0000 -156.0000
140 -390.0000 -430.0000
141 -117.0000  97.0000
142 410.0000 -133.0000
143 236.0000  47.0000
144 -422.0000 -182.0000
145 -88.0000 393.0000
146 -201.0000 258.0000
147  32.0000 -184.0000
148 -316.0000 -442.0000
149 -254.0000 388.0000
150 -307.0000 168.0000
151 -344.0000 -335.0000
152 -229.0000 -452.0000
153 443.0000 182.0000
154 -424.0000 341.0000
155 487.0000 -446.0000
156  83.0000 -424.0000
157 -416.0000 375.0000
158 214.0000 200.0000
159 -155.0000 -253.0000
160 -266.0000 250.0000
161 -315.0000 -19.0000
162 -13.0000 458.0000
163 -209.0000 -59.0000
164 345.0000 -347.0000
165 -66.0000 -337.0000
166 373.0000 137.0000
167 -43.0000 386.0000
168 236.0000 -279.0000
169 263.0000 236.0000
170 313.0000 -250.0000
171 466.0000 -104.0000
172 493.0000 -141.0000
173 117.0000 -70.0000
174 276.0000 -489.0000
175 -129.0000 -366.0000
176 -419.0000 -496.0000
177 482.0000 -216.0000
178 122.0000 334.0000
179 -343.0000 -385.0000
180 -398.0000 -291.0000
181 477.0000 -132.0000
182 -173.0000 304.0000
183 366.0000 145.0000
184 403.0000 362.0000
185 104.0000 333.0000
186 -471.0000 406.0000
187  68.0000 -481.0000
188 -40.0000 -45.0000
189 105.0000 131.0000
190 -476.0000 352.0000
191 -94.0000 420.0000
192 367.0000 230.0000
193 297.0000 -286.0000
194 126.0000 -435.0000
195 -12.0000 269.0000
196 -440.0000 447.0000
197 464.0000 115.0000
198 391.0000 365.0000
199 435.0000 -177.0000
200 -342.0000 -314.0000
DISPLAY_DATA_SECTION:
 1  250  250
 2  326  244
 3   90   37
 4  281    3
 5  264   19
 6  307  282
 7  445  360
 8  409  202
 9  277  345
10   42  175
11  321  202
12   74  210
13  214  283
14  495   57
15   90  462
16  256  460
17  328   73
18  419  418
19   11  371
20  497  430
21   87  462
22   61  379
23  256  142
24  467  443
25  475  104
26   80  483
27  330  355
28  371  249
29  307  432
30  110   99
31  162  154
32  187  268
33  433  192
34  161    5
35  350  276
36  480  150
37   28  485
38  398  312
39  113  492
40  200  150
41   52  397
42   13  215
43   22    4
44  317  250
45  212  331
46  186   59
47  278  211
48   23  211
49   19  392
50  474  295
51   33  318
52  433   10
53  302  421
54   97  223
55  388  318
56  104   34
57  251  135
58  426  119
59  194  225
60  107    2
61  261  454
62   90  499
63  138  126
64  409  285
65  369  147
66  336  378
67  378  119
68   81  122
69  126  231
70  232  133
71  494  346
72  276  340
73  281  476
74   79   51
75   65  451
76   73  476
77  401  399
78  368  128
79  482  362
80    8  251
81  348  445
82   57  376
83  239  386
84  131   51
85  144  152
86  433   18
87  230  394
88  296  111
89  430  238
90  175  359
91  358  164
92  184  293
93  125   10
94  122  458
95   54  319
96  236  169
97   51  288
98  351  364
99  246   32
100  392    9
101  499  287
102   46  463
103  319  329
104  147  424
105  449  370
106   96  116
107  491   55
108    7  256
109  193  297
110  401  146
111  406  217
112  494   14
113  272  454
114  147   25
115  414  287
116   75  239
117  264   14
118   53  426
119  375  224
120  413   38
121  323  448
122  165  232
123  231  281
124  363   86
125  408   10
126   46  186
127  479  248
128   50  447
129  416  200
130  397  269
131  183  205
132  492  169
133   11  227
134  151  208
135  281  353
136   46  130
137  116  443
138  497  496
139  155  172
140   55   35
141  191  298
142  455  183
143  368  273
144   39  159
145  206  446
146  149  379
147  266  158
148   92   29
149  123  444
150   96  334
151   78   82
152  135   24
153  471  341
154   38  420
155  493   27
156  291   38
157   42  437
158  357  350
159  172  123
160  117  375
161   92  240
162  243  479
163  145  220
164  422   76
165  217   81
166  436  318
167  228  443
168  368  110
169  381  368
170  406  125
171  483  198
172  496  179
173  308  215
174  388    5
175  185   67
176   40    2
177  491  142
178  311  417
179   78   57
180   51  104
181  488  184
182  163  402
183  433  322
184  451  431
185  302  416
186   14  453
187  284    9
188  230  227
189  302  315
190   12  426
191  203  460
192  433  365
193  398  107
194  313   32
195  244  384
196   30  473
197  482  307
198  445  432
199  467  161
200   79   93
DEMAND_SECTION
1 -2
2 2
3 3
4 -2
5 3
6 2
7 -8
8 9
9 0
10 5
11 8
12 -6
13 -4
14 10
15 -9
16 -10
17 8
18 4
19 0
20 0
21 10
22 0
23 3
24 2
25 0
26 6
27 -6
28 -6
29 0
30 -4
31 4
32 -7
33 2
34 3
35 -1
36 6
37 -9
38 1
39 0
40 -1
41 -9
42 1
43 -1
44 -6
45 0
46 8
47 0
48 -9
49 0
50 -2
51 4
52 6
53 1
54 8
55 8
56 -2
57 -5
58 -3
59 9
60 6
61 -5
62 -3
63 5
64 -6
65 0
66 -5
67 -7
68 -5
69 9
70 -2
71 -6
72 -5
73 9
74 0
75 -1
76 10
77 4
78 0
79 0
80 8
81 0
82 7
83 10
84 7
85 -4
86 4
87 0
88 9
89 -9
90 -9
91 -1
92 -8
93 4
94 -5
95 -7
96 -6
97 -10
98 6
99 -5
100 -7
101 0
102 -2
103 -7
104 0
105 -8
106 -4
107 6
108 -7
109 -6
110 -6
111 -8
112 -2
113 -6
114 2
115 0
116 6
117 8
118 -3
119 2
120 -7
121 0
122 10
123 0
124 -6
125 0
126 4
127 -1
128 -7
129 5
130 -1
131 -8
132 -2
133 3
134 8
135 -5
136 -7
137 2
138 -9
139 0
140 -2
141 -6
142 6
143 6
144 10
145 -5
146 -4
147 5
148 10
149 4
150 7
151 1
152 6
153 0
154 -5
155 -2
156 -1
157 5
158 7
159 9
160 -9
161 -2
162 -9
163 10
164 2
165 -6
166 -5
167 -10
168 9
169 0
170 -1
171 9
172 1
173 7
174 -8
175 -9
176 -9
177 -4
178 1
179 9
180 -1
181 1
182 6
183 -8
184 8
185 8
186 1
187 5
188 8
189 8
190 -7
191 6
192 4
193 -4
194 -2
195 -8
196 2
197 -3
198 1
199 -4
200 2
EOF